PARAMETER_FILE = even/LKH_uncomplete_graph/x10/seg/par/random133.par
PROBLEM_FILE = even/LKH_uncomplete_graph/x10/seg/mat/random133.tsp
Successes/Runs = 0/10
Cost.min = 869, Cost.avg = 869.20, Cost.max = 871
Gap.min = 0.0000%, Gap.avg = 0.0230%, Gap.max = 0.2301%
Trials.min = 1000, Trials.avg = 1000.0, Trials.max = 1000
Time.min = 1.56 sec., Time.avg = 1.84 sec., Time.max = 2.43 sec.
Time.total = 18.47 sec.
请按任意键继续. . . 
